21 = ndim
48 = nblocks
17 1 1 1 1 1 1 1 1 1 1 1 1 1 1 1 1 1 1 1 1 1 1 1 1 1 1 1 1 1 1 1 1 1 1 1 1 1 1 1 1 1 1 1 1 1 1 1 = blockstruct
1.0, 0.0, 0.0, 0.0, 0.0, 0.0, 0.0, 0.0, 0.0, 0.0, 0.0, 0.0, 0.0, 0.0, 0.0, 0.0, 0.0, 0.0, 0.0, 0.0, 0.0 = objcoeffs
0 1 1 1 3.0903384219e-10
0 1 1 2 4.59499683394
0 1 1 3 -4.9845758382
0 1 1 4 -0.0571060508233
0 1 1 5 -0.140948383708
0 1 1 6 -3.68319446663
0 1 1 7 0.0385857780866
0 1 1 8 8.16446336415
0 1 1 9 -5.41424900151
0 1 1 10 -7.81779159367e-06
0 1 1 11 -0.000639418778514
0 1 1 12 -9.52094561207e-06
0 1 1 13 -1.36196199823e-06
0 1 1 14 -1.36196199823e-06
0 1 1 15 -0.000606297805814
0 1 1 16 1.86133426385e-05
0 1 1 17 7.07500777952e-06
0 1 2 2 -1.0
0 1 3 3 -1.0
0 1 4 4 -1.0
0 1 5 5 -1.0
0 1 6 6 -1.0
0 1 7 7 -1.0
0 1 8 8 -1.0
0 1 9 9 -1.0
0 1 10 10 -1.0
0 1 11 11 -1.0
0 1 12 12 -1.0
0 1 13 13 -1.0
0 1 14 14 -1.0
0 1 15 15 -1.0
0 1 16 16 -1.0
0 1 17 17 -1.0
0 2 1 1 1e-06
0 3 1 1 1e-06
0 4 1 1 1e-06
0 5 1 1 1e-06
0 6 1 1 1e-06
0 7 1 1 -15.138999
0 8 1 1 14.939001
0 9 1 1 1.383051
0 10 1 1 -1.396949
0 11 1 1 1.311411
0 12 1 1 -1.324589
0 13 1 1 0.816896
0 14 1 1 -0.825104
0 15 1 1 0.765156
0 16 1 1 -0.772844
0 17 1 1 0.683566
0 18 1 1 -0.690434
0 19 1 1 1e-06
0 20 1 1 1e-06
0 21 1 1 1e-06
0 22 1 1 1e-06
0 23 1 1 1e-06
0 24 1 1 1e-06
0 25 1 1 1e-06
0 26 1 1 1e-06
0 27 1 1 1e-06
0 28 1 1 1e-06
0 29 1 1 1e-06
0 30 1 1 1e-06
0 31 1 1 1e-06
0 32 1 1 1e-06
0 33 1 1 1e-06
0 34 1 1 1e-06
0 35 1 1 1e-06
0 36 1 1 1e-06
0 37 1 1 1e-06
0 38 1 1 1e-06
0 39 1 1 1e-06
0 40 1 1 1e-06
0 41 1 1 1e-06
0 42 1 1 1e-06
0 43 1 1 1e-06
0 44 1 1 1e-06
0 45 1 1 1e-06
0 46 1 1 1e-06
0 47 1 1 1e-06
0 48 1 1 1e-06
1 1 1 1 1.0
2 1 1 11 -0.000460013509722
2 2 1 1 1.0
2 7 1 1 -1.0
2 8 1 1 1.0
2 9 1 1 1.0
2 10 1 1 -1.0
2 19 1 1 0.0852150991559
2 20 1 1 0.0853551030159
2 21 1 1 0.0756699964404
2 22 1 1 0.05610819906
2 23 1 1 0.0848226025701
2 24 1 1 0.0850974991918
3 1 1 12 -0.000460013509722
3 19 1 1 1.0
3 20 1 1 -1.0
4 1 1 13 -0.000460013509722
4 21 1 1 1.0
4 22 1 1 -1.0
5 1 1 14 -0.000460013509722
5 23 1 1 1.0
5 24 1 1 -1.0
6 1 1 15 -0.000460013509722
6 3 1 1 1.0
6 7 1 1 -1.0
6 8 1 1 1.0
6 11 1 1 1.0
6 12 1 1 -1.0
6 25 1 1 0.0364000014961
6 26 1 1 0.0380599983037
6 27 1 1 0.11400000006
6 28 1 1 0.105999998748
6 29 1 1 0.0399499982595
6 30 1 1 0.0499899983406
7 1 1 2 4.64820194623
7 1 1 3 -17.8088473696
7 1 1 4 -5.25289715281e-07
7 1 1 5 -1.04304124493e-06
7 1 1 6 -12.6894532134
7 1 1 7 0.416121148627
7 1 1 8 -22.7228139161
7 25 1 1 1.0
7 26 1 1 -1.0
8 1 1 16 -0.000460013509722
8 27 1 1 1.0
8 28 1 1 -1.0
9 1 1 2 4.14779935917
9 1 1 3 16.8999586459
9 1 1 4 -9.17322529048e-07
9 1 1 5 -2.72949025693e-06
9 1 1 6 11.8315161201
9 1 1 7 0.0703662719169
9 1 1 8 18.187525639
9 1 1 9 -11.6124876547
9 29 1 1 1.0
9 30 1 1 -1.0
10 1 1 2 0.642908884987
10 1 1 3 2.6194935262
10 1 1 4 -1.42184988534e-07
10 1 1 5 -4.23070979502e-07
10 1 1 6 1.83388495387
10 1 1 7 0.010906771881
10 1 1 8 2.81906640527
10 1 1 9 -1.79993554257
10 4 1 1 1.0
10 7 1 1 -1.0
10 8 1 1 1.0
10 13 1 1 1.0
10 14 1 1 -1.0
10 31 1 1 0.0320999994874
10 32 1 1 0.0322099998593
10 33 1 1 0.107539996505
10 34 1 1 0.0844900012016
10 35 1 1 0.0465499982238
10 36 1 1 0.0365599989891
11 1 1 2 0.275535687705
11 1 1 3 -7.91750507212
11 1 1 4 -0.0314870836231
11 1 1 5 -0.0875723211339
11 1 1 6 -5.60632454875
11 1 1 7 2.87728009033e-15
11 31 1 1 1.0
11 32 1 1 -1.0
12 1 1 10 -0.000460013509722
12 33 1 1 1.0
12 34 1 1 -1.0
13 1 1 2 1.73966577787
13 1 1 3 -49.9892145905
13 1 1 4 -0.198801840444
13 1 1 5 -0.552910482971
13 1 1 6 -35.3969790204
13 35 1 1 1.0
13 36 1 1 -1.0
14 1 1 2 0.877763743006
14 1 1 3 -4.1290504219
14 1 1 4 -0.0268383902575
14 1 1 5 -0.0746433371946
14 1 1 6 -2.94470719797
14 1 1 7 0.0109067715654
14 1 1 8 2.8190663237
14 1 1 9 -1.79993549048
14 5 1 1 1.0
14 7 1 1 -1.0
14 8 1 1 1.0
14 15 1 1 1.0
14 16 1 1 -1.0
14 37 1 1 0.0333399996161
14 38 1 1 0.0336100012064
14 39 1 1 0.0620100013912
14 40 1 1 0.0548200011253
14 41 1 1 0.0593600012362
14 42 1 1 0.039390001446
15 1 1 2 1.5495703128
15 1 1 3 -73.6537543135
15 37 1 1 1.0
15 38 1 1 -1.0
16 1 1 17 -0.000460013509722
16 39 1 1 1.0
16 40 1 1 -1.0
17 1 1 2 18.6249887373
17 41 1 1 1.0
17 42 1 1 -1.0
18 1 1 2 3.2959132446
18 1 1 3 -3.98174282256
18 1 1 4 -0.0268383898933
18 1 1 5 -0.0746433361816
18 1 1 6 -2.94470700254
18 1 1 7 0.010906772342
18 1 1 8 2.81906652442
18 1 1 9 -1.79993561864
18 6 1 1 1.0
18 7 1 1 -1.0
18 8 1 1 1.0
18 17 1 1 1.0
18 18 1 1 -1.0
18 43 1 1 0.0266699995846
18 44 1 1 0.0265299994498
18 45 1 1 0.0290699992329
18 46 1 1 0.0116600003093
18 47 1 1 0.0481700003147
18 48 1 1 0.0482000000775
19 1 1 2 9.35772199566
19 1 1 3 59.4096059972
19 1 1 4 5.52285579455
19 1 1 5 -4.71242461272
19 43 1 1 1.0
19 44 1 1 -1.0
20 1 1 2 -14.9192385638
20 1 1 3 39.8040044183
20 1 1 4 -8.13555236152
20 45 1 1 1.0
20 46 1 1 -1.0
21 1 1 2 18.6249887373
21 47 1 1 1.0
21 48 1 1 -1.0
